
n_res = 8;
rcap = [49, 52, 53, 44, 881, 903, 863, 842];
rtype = [1, 1, 1, 1, 2, 2, 2, 2];
n_tasks = 50;
modes =  [{1, 2, 3}, {4, 5, 6}, {7, 8, 9}, {10, 11, 12}, {13, 14, 15}, {16, 17, 18}, {19, 20, 21}, {22, 23, 24}, {25, 26, 27}, {28, 29, 30}, {31, 32, 33}, {34, 35, 36}, {37, 38, 39}, {40, 41, 42}, {43, 44, 45}, {46, 47, 48}, {49, 50, 51}, {52, 53, 54}, {55, 56, 57}, {58, 59, 60}, {61, 62, 63}, {64, 65, 66}, {67, 68, 69}, {70, 71, 72}, {73, 74, 75}, {76, 77, 78}, {79, 80, 81}, {82, 83, 84}, {85, 86, 87}, {88, 89, 90}, {91, 92, 93}, {94, 95, 96}, {97, 98, 99}, {100, 101, 102}, {103, 104, 105}, {106, 107, 108}, {109, 110, 111}, {112, 113, 114}, {115, 116, 117}, {118, 119, 120}, {121, 122, 123}, {124, 125, 126}, {127, 128, 129}, {130, 131, 132}, {133, 134, 135}, {136, 137, 138}, {139, 140, 141}, {142, 143, 144}, {145, 146, 147}, {148, 149, 150}];
succ =  [{48, 28, 25, 24, 20, 18, 16, 4}, {49, 48, 47, 46, 45, 44, 43, 42, 41, 38, 32, 30, 29, 28, 27, 26, 25, 24}, {49, 48, 46, 45, 43, 31, 29, 28, 26, 24, 18, 16}, {50, 49, 47, 46, 44, 43, 42, 41, 40, 39, 38, 37, 35, 34, 30, 26}, {49, 48, 46, 45, 43, 38, 35, 29, 26, 16}, {48, 47, 46, 45, 41, 40, 37, 35, 29, 26, 21}, {50, 49, 48, 47, 43, 38, 27, 16}, {50, 46, 43, 39, 38, 36, 35, 34, 30, 20}, {48, 46, 44, 42, 41, 38, 35, 34, 31, 20}, {47, 46, 45, 40, 32, 26, 21}, {45, 43, 41, 40, 39, 38, 37, 36, 31, 24}, {49, 44, 42, 41, 40, 36, 34, 30, 27}, {48, 46, 45, 44, 39, 38, 36, 35, 30}, {44, 43, 42, 38, 37, 36, 34, 27}, {48, 44, 42, 40, 39, 36, 35, 34, 33}, {41, 40, 39, 37, 36, 34, 30}, {47, 43, 41, 40, 38, 37, 30}, {44, 42, 40, 38, 34, 27}, {43, 39, 34, 28}, {47, 45, 37, 33}, {42, 39, 38, 34}, {44, 38, 37, 36}, {39, 37, 35, 34}, {35, 34, 33}, {39, 35, 33}, {36, 33}, {35, 33}, {40, 33}, {36, 33}, {33}, {33}, {37}, {}, {}, {}, {}, {}, {}, {}, {}, {}, {}, {}, {}, {}, {}, {}, {}, {}, {}];
n_opt = 150;
dur = [10, 14, 23, 12, 14, 26, 1, 2, 30, 8, 19, 29, 8, 21, 25, 20, 23, 27, 2, 9, 23, 16, 17, 27, 5, 21, 22, 16, 18, 25, 19, 21, 25, 7, 8, 25, 3, 11, 14, 1, 12, 16, 15, 25, 27, 6, 21, 24, 6, 11, 14, 17, 21, 22, 14, 18, 19, 4, 8, 15, 6, 23, 24, 11, 13, 30, 5, 18, 25, 4, 11, 29, 20, 24, 29, 1, 7, 25, 12, 16, 23, 7, 8, 17, 8, 24, 25, 11, 12, 30, 7, 10, 16, 10, 13, 21, 15, 23, 26, 5, 12, 24, 7, 16, 24, 9, 10, 11, 15, 17, 29, 17, 19, 20, 10, 24, 25, 2, 3, 4, 7, 24, 30, 12, 16, 21, 7, 10, 15, 2, 20, 21, 10, 24, 26, 2, 4, 30, 7, 13, 26, 7, 24, 26, 6, 8, 19, 5, 16, 24];
rreq = [|4, 4, 4, 1, 1, 1, 3, 3, 1, 4, 4, 3, 2, 1, 1, 4, 3, 3, 5, 4, 3, 4, 4, 2, 3, 3, 1, 4, 3, 3, 4, 3, 2, 4, 4, 3, 3, 2, 1, 2, 2, 2, 3, 2, 1, 4, 4, 4, 4, 4, 3, 2, 2, 2, 5, 3, 3, 4, 2, 1, 4, 2, 1, 4, 2, 2, 5, 2, 1, 2, 2, 2, 3, 3, 3, 3, 3, 3, 5, 4, 4, 5, 4, 4, 4, 3, 3, 4, 3, 3, 1, 1, 1, 4, 3, 3, 3, 3, 3, 2, 1, 1, 3, 3, 3, 5, 4, 4, 4, 4, 4, 4, 3, 3, 5, 4, 4, 2, 2, 1, 3, 3, 3, 2, 2, 2, 4, 4, 3, 3, 3, 3, 1, 1, 1, 5, 3, 2, 3, 2, 1, 4, 3, 3, 3, 3, 3, 3, 3, 2
 |4, 3, 3, 4, 2, 2, 5, 4, 4, 4, 4, 2, 5, 4, 3, 3, 1, 1, 5, 4, 4, 3, 2, 1, 2, 1, 1, 4, 4, 4, 4, 3, 3, 5, 3, 3, 4, 4, 4, 2, 2, 2, 4, 3, 3, 2, 1, 1, 3, 1, 1, 3, 2, 2, 4, 4, 3, 5, 4, 4, 4, 3, 1, 3, 3, 3, 4, 3, 3, 3, 2, 1, 5, 4, 3, 4, 3, 3, 4, 2, 1, 2, 1, 1, 5, 5, 5, 4, 3, 3, 3, 2, 2, 4, 4, 4, 3, 2, 2, 2, 1, 1, 3, 2, 2, 4, 4, 3, 2, 2, 2, 4, 3, 3, 1, 1, 1, 4, 3, 2, 5, 4, 4, 3, 3, 1, 3, 3, 2, 4, 4, 3, 3, 3, 3, 5, 4, 4, 2, 1, 1, 3, 2, 1, 3, 3, 3, 4, 4, 3
 |5, 5, 5, 2, 1, 1, 4, 2, 1, 5, 4, 3, 5, 5, 5, 3, 3, 3, 4, 4, 4, 5, 3, 2, 3, 2, 2, 4, 3, 2, 5, 4, 4, 5, 4, 4, 3, 3, 3, 5, 5, 5, 3, 2, 1, 4, 3, 1, 5, 3, 2, 3, 2, 1, 3, 2, 2, 4, 2, 2, 3, 2, 2, 1, 1, 1, 4, 3, 3, 4, 4, 4, 1, 1, 1, 5, 3, 3, 2, 2, 2, 2, 2, 1, 1, 1, 1, 4, 3, 2, 4, 3, 2, 2, 1, 1, 5, 3, 3, 2, 1, 1, 4, 4, 4, 2, 1, 1, 4, 4, 4, 2, 1, 1, 5, 4, 3, 3, 1, 1, 3, 2, 2, 4, 3, 2, 5, 3, 3, 3, 2, 2, 4, 3, 2, 4, 3, 2, 5, 4, 2, 4, 2, 2, 5, 4, 3, 4, 3, 1
 |4, 3, 2, 2, 1, 1, 4, 3, 3, 4, 3, 3, 2, 2, 2, 3, 2, 1, 1, 1, 1, 3, 3, 2, 2, 1, 1, 3, 2, 2, 4, 4, 2, 2, 2, 2, 2, 1, 1, 4, 4, 3, 3, 3, 3, 2, 2, 2, 5, 4, 3, 3, 3, 1, 4, 3, 3, 3, 2, 2, 1, 1, 1, 4, 3, 3, 2, 1, 1, 3, 2, 1, 4, 2, 2, 4, 2, 1, 2, 2, 2, 4, 3, 3, 4, 3, 3, 4, 4, 3, 4, 3, 3, 4, 3, 3, 2, 2, 2, 4, 4, 4, 1, 1, 1, 4, 4, 4, 3, 2, 2, 3, 3, 3, 4, 2, 2, 3, 2, 1, 3, 2, 2, 2, 2, 2, 1, 1, 1, 1, 1, 1, 4, 4, 4, 4, 4, 4, 4, 2, 2, 2, 1, 1, 2, 1, 1, 3, 2, 1
 |28, 26, 25, 14, 13, 10, 22, 22, 22, 23, 23, 23, 29, 27, 27, 29, 24, 22, 12, 9, 7, 29, 29, 29, 21, 15, 15, 10, 6, 5, 17, 16, 14, 6, 6, 6, 16, 14, 13, 12, 11, 11, 17, 15, 8, 25, 23, 21, 21, 20, 17, 26, 19, 14, 19, 18, 17, 18, 13, 8, 17, 10, 1, 18, 14, 3, 23, 16, 12, 17, 9, 7, 18, 13, 6, 16, 11, 8, 4, 4, 4, 13, 11, 11, 27, 27, 27, 24, 22, 19, 23, 22, 22, 24, 15, 9, 28, 25, 24, 15, 13, 6, 12, 11, 5, 26, 23, 23, 21, 21, 21, 22, 10, 8, 6, 6, 6, 20, 14, 12, 22, 15, 13, 3, 3, 1, 6, 4, 4, 21, 20, 17, 20, 20, 20, 22, 12, 10, 17, 12, 3, 22, 15, 9, 23, 20, 19, 28, 27, 24
 |18, 16, 11, 12, 12, 12, 23, 22, 21, 21, 19, 16, 26, 21, 14, 29, 24, 20, 20, 17, 15, 6, 6, 6, 24, 24, 23, 27, 25, 17, 15, 10, 9, 23, 17, 15, 23, 18, 13, 27, 24, 16, 20, 12, 6, 9, 5, 3, 27, 16, 10, 26, 25, 24, 22, 20, 19, 25, 21, 20, 26, 22, 17, 28, 19, 17, 26, 16, 6, 16, 14, 13, 25, 20, 19, 21, 19, 6, 8, 8, 8, 16, 15, 14, 14, 12, 11, 16, 8, 5, 5, 4, 4, 20, 8, 8, 23, 21, 14, 13, 11, 11, 10, 8, 8, 6, 4, 3, 27, 25, 25, 21, 18, 8, 27, 27, 27, 21, 19, 16, 18, 14, 14, 18, 10, 7, 16, 13, 8, 24, 17, 8, 22, 20, 19, 27, 21, 15, 19, 14, 8, 14, 12, 10, 15, 14, 12, 24, 20, 14
 |23, 19, 18, 18, 15, 12, 30, 23, 20, 18, 15, 14, 25, 21, 13, 20, 15, 14, 10, 7, 5, 21, 17, 8, 7, 5, 4, 29, 14, 8, 10, 8, 7, 16, 14, 14, 9, 7, 4, 18, 11, 1, 16, 7, 6, 17, 17, 15, 10, 7, 1, 21, 16, 10, 25, 17, 16, 12, 9, 7, 22, 19, 11, 25, 24, 16, 25, 21, 19, 26, 26, 26, 6, 3, 3, 17, 14, 9, 10, 7, 6, 21, 18, 15, 28, 26, 26, 11, 11, 11, 22, 15, 8, 26, 26, 24, 13, 12, 9, 13, 10, 6, 23, 19, 14, 20, 16, 10, 26, 26, 25, 13, 13, 6, 19, 19, 17, 9, 6, 5, 29, 27, 27, 17, 15, 11, 25, 16, 11, 23, 19, 16, 26, 26, 25, 27, 14, 11, 28, 27, 22, 17, 16, 8, 12, 10, 9, 12, 11, 11
 |12, 8, 4, 24, 22, 16, 3, 2, 1, 30, 30, 30, 24, 17, 11, 23, 20, 18, 23, 18, 18, 17, 9, 3, 15, 12, 8, 27, 21, 14, 19, 14, 10, 27, 27, 26, 25, 25, 25, 23, 12, 7, 17, 14, 10, 17, 12, 10, 9, 9, 9, 23, 19, 16, 15, 11, 10, 27, 21, 15, 17, 15, 13, 26, 20, 15, 15, 10, 6, 13, 12, 12, 25, 10, 7, 17, 15, 12, 15, 13, 7, 16, 9, 8, 25, 21, 18, 16, 15, 14, 21, 19, 17, 27, 26, 26, 15, 14, 14, 17, 15, 11, 12, 11, 10, 1, 1, 1, 8, 7, 7, 16, 13, 7, 24, 24, 24, 27, 14, 11, 15, 15, 11, 19, 15, 12, 21, 15, 11, 19, 16, 10, 27, 14, 2, 18, 15, 14, 14, 9, 9, 9, 8, 6, 6, 5, 3, 26, 21, 9|];